QBPP_HJ+_25_025_20_2
25 75 1735
38 40 43 40 4 45 43 23 11 47 47 14 6 46 34 1 29 7 22 42 14 41 22 41 50
    0    0    0    0    0   67   37    0    0    0    0    0   18    0    2    0    0    0    0    0    0    0    0    0    0
    0    0   58    0    0    0    0   61    0    0    0    0    0    0    0   51   50    0    0    0    0   50    0    6    0
    0   58    0    0    0    0    0    0    0    0    0   97    0    0    0   41    0   42    0   58    0    0    1   38    0
    0    0    0    0    0    0    0   21   72    0    0    0    0    0   71    0    0    0    0    0    0    0   89    0    0
    0    0    0    0    0    0   93    0    0   43    0    0    0    6   62    0   77   23   99    0    0  100   61    0    0
   67    0    0    0    0    0    0    0    0    0    0    0    0    0   55    0    0    7    0    0    0   15    0    0    0
   37    0    0    0   93    0    0    0    0    5    0    0   17   79    0   81    0   20   88   20    0    0    0    0    0
    0   61    0   21    0    0    0    0   25    0    0   97    0    0    0   40    0   22    0    0    0   70    0    0   12
    0    0    0   72    0    0    0   25    0    0   82    0    0    0    0    0    0    0   24   51    0    0   58    0    0
    0    0    0    0   43    0    5    0    0    0    0   68    0    0    0    0    0    0    0    0   13   74    0    0    0
    0    0    0    0    0    0    0    0   82    0    0    0    0   29    0    0    0    0    0    0    0   66    0    0    0
    0    0   97    0    0    0    0   97    0   68    0    0    0    0    0   11    0   12    0   34    0   77    0    0   25
   18    0    0    0    0    0   17    0    0    0    0    0    0    0    0    0    0    0    0    0    0   38    0   58    0
    0    0    0    0    6    0   79    0    0    0   29    0    0    0    0   89    0   96    0   48   89    0    0    0    0
    2    0    0   71   62   55    0    0    0    0    0    0    0    0    0    0    0    0   61    0    0   36    0    0    0
    0   51   41    0    0    0   81   40    0    0    0   11    0   89    0    0    0   52   30    0    0    0    0    0    0
    0   50    0    0   77    0    0    0    0    0    0    0    0    0    0    0    0    0    0   94    0    0    0   35    0
    0    0   42    0   23    7   20   22    0    0    0   12    0   96    0   52    0    0    0    0    0    0    0    0    0
    0    0    0    0   99    0   88    0   24    0    0    0    0    0   61   30    0    0    0    0    0   93   36    0    0
    0    0   58    0    0    0   20    0   51    0    0   34    0   48    0    0   94    0    0    0   10    0    0    0    0
    0    0    0    0    0    0    0    0    0   13    0    0    0   89    0    0    0    0    0   10    0   96   25    0    0
    0   50    0    0  100   15    0   70    0   74   66   77   38    0   36    0    0    0   93    0   96    0    0   38    0
    0    0    1   89   61    0    0    0   58    0    0    0    0    0    0    0    0    0   36    0   25    0    0    0    0
    0    6   38    0    0    0    0    0    0    0    0    0   58    0    0    0   35    0    0    0    0   38    0    0    0
    0    0    0    0    0    0    0   12    0    0    0   25    0    0    0    0    0    0    0    0    0    0    0    0    0
